     60      2     31    436     15
     30     33
     35     27      5     50     21     55     40     30     58     34     12     51     58      2     36     52     12     47     59      0      4     47     45      4     50     42     16     35     43     30     36     44      7      4     41     54     57      7     52     36     43     26     28     26     59     40     28     14     27     50     34     19     47      2     29      8     36     20      8     50     15     31     53      7     40     28     20      6     19     47      2     48      9     15     38     23     32     12     41     54     20      4     34     22      0     43     49     30      6     56     12     38     16     21     32     34     42     43     37     20     56     38      0     10     43      1      3      9     32     46     44      7     45     38     59     51      1     35     14     31     32     52      7     59     12     22     15     22     16     17     24     48     30     54      0     17     45     49     35     54     41     58     21      8     31      2      0     15      9     53     27      2     12     57     38     43     21     30     18     52     49      7     46     33      3     41      4     24     45     14      8     15     22     25     53     17     54     20     40     57     52     53     33     38     20     54      2     35     22     26     52     39     50     24     17     13      1     32     36      3     34      0     31      3     43      2     40     32     53     11     14     33      7     30     48     18     22     35     46     29     36     13      8      9     30     38     28     14     19     56     45      0     24     50     48     10     21     33     40     16      5     15     50      5      9     40     17      4     37     11     44     10     51     58     13     46     42     16     19     58     48     41     23      2     31     34     29     25     44     37     40     26     56      7      7     37      0     28     55     19     43     50     58     36     41     32     48     57     24     33     17     29     21     20     44     56     16      5      8     34     10      1      2     32     11     36     40     52     39     55     58      5     38     29     40     42     48     10     29     49     14     55     25     55     49     37     59     24      2      5
    -32     12     59    -29    228     82     97    -19    133     65     74      3    131    144     19    104     75     87     29    133     93     38    119    143    116     14     55     49      0     18    100    139    -11    136     15    107     56     -2    140    -34     -1     90     51    131     70      9    -14     27    101      1    -35    -17     27     60     -1    108    -29     15    124    -35
      7     10     10	    328     97     20     23      3      0      0      0      0      0      0      0      0    180      0     61     43      0      0      0      0      0      0      0      0      0      0      0      0      0     58      0      0      0      0      0      0      0      0      0      0      0      0      0     72      0     -8      2      0      0      0      0      0      0      0      0      0      0    202     -9      0      0      0      0    130
     11     12     15	    349    140     11     28      1      0      0      0      0      0    258      0    164      0      0      0      0      0      0      0      0      0      0      0     77      0      0      0      0      0      0      0    230    256    214      0      0      0      0    -16      0      0     56      0      0      0      0      0      0      0      0    186      0      0      0      0      0    -25    205      0      0     27    -31      0      0
     11     11     14	    184     88     16     28      8      0      0      0      0    -34      0      0    -33      0      0      0    -36      0      0      0      0      0      0      0     76      0      0      0      0      0      0      0     83      0      0    -12      0      2      0      0      0      0      0      0     56      0      0      0      0    138      0      0      0      0    -19      0      0      0      0     59     73      0      0     85    147
     10     15     10	    286    199     25     25      2      0      0      0      0     68      0      0     71     58    112      0      0      0    -18      0      0     55      0      0     51      0      0      0      0      0      0      0      0     41      0      0    115      0      0     22      0      0     67      0      0      0     56      0      0      0      0      0      0      0      0      0      0      0      0      0      0      0      0      0     83
     10     11     11	    457    156     23     25      4      0      0    -34     68      0      0      0     74      0      0      0      0      0     37      0      0     41      0      0     18      0      0      0      0      0      0    130      0      0      0    247      0    139      0      0      0      0      0      0      0      0      0      0      0      0      0    159      0      0      0      0      0      0      0      0      0     99      0      0    170
      6     14     11	    461    284     10     26      5      0    258      0      0      0      0      0      0      0    -56      0     -8    -33      0      0      0      0      0      0      0      0    -19      0      0    112    -20      0    310      0      0      0      0      0      0      0      0      0     99      0      0      0     68     12      0      0      0      0      0      0    136      0      0      0      0      0      0      0      0      0      0
     11     13     11	    222     67     24     28      1      0      0      0      0      0      0      0      0      0      0      0      0    117      0      0     39      0    146      0      0      0     -8      0    159      0    -23      0      0      0    125      0      0      0    -13      0      0      0    108      0      0      0      0      0      0      0    148      0      0      0      0      0      0     99      0      0      0      0     24      0      0
     11     12     12	    247     62     21     31      8      0    164    -33     71     74      0      0      0      0      0      0      0      0     97      0     10      0      0      0      0      0      0      0      0      0      0      0      0      0      0    -39      0      0      0      0    158      0     83      0      0    -36    -20      0      0    151      0      0    106      0      0      0      0      0      0      0      0      0      0      0    188
     11     11     11	    277     61     25     28      7    180      0      0     58      0      0      0      0      0      0      0     -5      0      0      0      0      0      0      0     65    130      0      0      0    102      0      0      0    110      0      0      0      0    -12    179     48      0      0      0      0      0      0     70     69    -33      0      0      0     86      0      0      0    209      0      0      0      0    125      0      0
      6     12     13	    422    175     22     28      8      0      0      0    112      0    -56      0      0      0      0      0      0      0      0      0      0      0      0      0      0      0      0      0      0      0      0      0      0      0      0      0      0      0      0      0      0     18      0      0      0    -59      0      0      0      0      0    232      0      0      0      0      0      0      0      0      0      0      0      0      0
     12     11     12	    197     58     25     27      2     61      0      0      0      0      0      0      0      0      0      0      0      0      0     30      0      0      0    152      0      0      0      0      0      0     54      0      0      0      0      0      0      0      0      0      0      0      0      0      0      0      0      0    117      0      0      0      0      0      0      0     33      0      0      0     86      0      0      0      0
      6     10     14	    431    186     31     31      5     43      0    -36      0      0     -8      0      0     -5      0      0      0      0      0      0      0    129      0    133      0      0      0      0      0      0      0     88      0    -11      0      0    137      0     93     19      0      0      0      0      0      0      0    172    -51      0      0      0     79      0      0     88      0      0      0      0      0     30      0      0      0
     12     13     14	    464    140     28     29      3      0      0      0      0      0    -33    117      0      0      0      0      0      0      0      0      0      0      0    142      0      0      0      0      0     86      0      0      0      0      0      0     80      0      0      0      0      0     66      0      0      0     61      0     68    -32      0      0     97      0    323    -33    140      0      0      0      0      0      0      0     84
      7     14     11	    127     57     19     19      8      0      0      0    -18     37      0      0     97      0      0      0      0      0      0      0     85      0      0     80      0     53      0      0     -8      0     45     80      0      0    -13      0      0      0      0      0      0      0      0      0      0      0      0      0      0      0      0    -21      0      0      0      0      0      0      0      0      0      0      0     15      0
      9     11     10	    283    169     14     29      1      0      0      0      0      0      0      0      0      0      0     30      0      0      0      0    131    183      0     -2      0      1      0      0     65      0     -9      0    110      0      0      0      0      0      0      0      0      3      0      0      0      0      0      0    118      0      0      0      0      0    -14      0      0      0      0    119      0      0      0      0    197
      6     15     11	    203    101     19     22      6      0      0      0      0      0      0     39     10      0      0      0      0      0     85    131      0      0      0      0     34    -40      0      0      2      0      0      0      0      0      0     30      0     72      0    -39      0      0      0      0     96      0      0      0      0      0    -19      0      0      0      0      0    -34    111     -2      0      0      0      0      0      0
      9     15     15	    275    117     25     30      6      0      0      0     55     41      0      0      0      0      0      0    129      0      0    183      0      0    207    150     17      0    180    -44      0      0      0    177      0     13      0      0      0      0      0      0      0      0      0      0      0      0      0      0    -36    -50      0     98      0      0      0      0      0      0      0      0     -1     -6      0      0      0
     11     15     10	    427    222     14     16      8      0      0      0      0      0      0    146      0      0      0      0      0      0      0      0      0    207      0      0      0      0    -40      0      0      0    -20      0      0    -37      0      0      0      0      0      0      0      0      0      0      0      0     52     -7      0      0    158      0      0      0      0     92      0      0      0    221    157      0      0     -3      0
      6     15     13	    295    178     25     26      6      0      0      0      0      0      0      0      0      0      0    152    133    142     80     -2      0    150      0      0      0      0      0      0      0      0      0      0      0      0    -34      0      0      0      0      0      0      0      0      0    183      0      0      0      0      0      0      0      0      0      0      0      0      0      0      0      0      0      0      0      0
     10     11     10	    103     60     29     30     10      0     77     76     51     18      0      0      0     65      0      0      0      0      0      0     34     17      0      0      0     28      0     31      0      0      0      0      0     11    -11      0      0      0      0      0      0      0      0      0      0      0      0      0    -18      0      0      0      0      0      0      0      0      0      0      0      0      0      0      0      0
      7     11     14	    475     90     31     31      9      0      0      0      0      0      0      0      0    130      0      0      0      0     53      1    -40      0      0      0     28      0    292      0    114      0      0      0      0      0      0      0      0      0      0      0     66     90      0      0    152      0     50      0      0      0      0      0      0      0      0      0      0    -36      0      0      0      0      0      0      0
     11     11     12	    489    219     23     30      7      0      0      0      0      0    -19     -8      0      0      0      0      0      0      0      0      0    180    -40      0      0    292      0    132      0      0      0      0      0      0    135      0      0     19      0      0      0      0      0      0      0      0      0      0      0      0      0      0    103      0      0      0      0      0      0      0    310    -38      0      0      0
     10     13     12	    481     69     28     29      7      0      0      0      0      0      0      0      0      0      0      0      0      0      0      0      0    -44      0      0     31      0    132      0      0      0      0    110      0      0      0      0      0      0      0      0    181      0      0      0      0      0     10    208      0      0      0      0      0      0     -9      0      0      0      0      0      0      0      0      0      0
      6     11     14	    413    126     19     31      9      0      0      0      0      0      0    159      0      0      0      0      0      0     -8     65      2      0      0      0      0    114      0      0      0      0      0      0      0      0    -50      0     75      0      0      0      0     98     26     58     -6      0      0      0      0      0      0    138      0     10      0      0    -64      0      0    309      0      0    142    106      0
     10     13     12	    199     99     28     30      1      0      0      0      0      0    112      0      0    102      0      0      0     86      0      0      0      0      0      0      0      0      0      0      0      0     41      0      0     77      0      0      0      0      0      0      0      0      0      0      0      0     88      0      0      0    -12     63      0      0     -5      0      0      0      0      0      0      0    -24      0      0
      8     11     14	    166     54     17     31      4     58      0      0      0      0    -20    -23      0      0      0     54      0      0     45     -9      0      0    -20      0      0      0      0      0      0     41      0      0      0      0      0      0      0      0      0      0      0      0     -4      0      0     74      0      0      0      0      0      0      0     73      0      0     18      0      0      0      0      0      0      0      0
     10     14     12	    305    128     28     31      3      0      0      0      0    130      0      0      0      0      0      0     88      0     80      0      0    177      0      0      0      0      0    110      0      0      0      0      0      0      0      0      0    162      0      0      0    -22      0      0      0      0      0    147      0      0      0      0      0      0    227      0      0    185      0      0     52      0    199      0      0
      8     14     12	    395    191     24     28      8      0    230     83      0      0    310      0      0      0      0      0      0      0      0    110      0      0      0      0      0      0      0      0      0      0      0      0      0      0      0      0      0    214     86      0      0      0      0      0    224      0      0      0      0      0      0      0      0      0      0      0      0      0    151      0      0      0      0      0    105
      6     11     11	    421     51      6     20      6      0    256      0     41      0      0      0      0    110      0      0    -11      0      0      0      0     13    -37      0     11      0      0      0      0     77      0      0      0      0    114      0      0      0      0      0      0    107      0      0      0      0      0      0      0      0      0      0     39      0    307      0      0      0      0      0      0      0      0    -11      0
      8     14     11	    436    255     22     25      3      0    214      0      0      0      0    125      0      0      0      0      0      0    -13      0      0      0      0    -34    -11      0    135      0    -50      0      0      0      0    114      0      0      0      0      0      0      0      0      0      0      0      0      0    316      0      0      0      0      0      0      0      0      0      0     -7      0      0      0    -27      0    104
      8     13     15	    370    209     26     27      1      0      0    -12      0    247      0      0    -39      0      0      0      0      0      0      0     30      0      0      0      0      0      0      0      0      0      0      0      0      0      0      0      0      0      0    282      0      0      0      0    223      0      0    199      0      0      0      0      0    114      0    167      9      0      0      0      0      0      0      0      0
      7     11     11	    233    103     11     17      1      0      0      0    115      0      0      0      0      0      0      0    137     80      0      0      0      0      0      0      0      0      0      0     75      0      0      0      0      0      0      0      0    135      0      0      0      0      0      0      0      0      0      0      0      0      0    123      0      0      0      0      0      0      0      0     48     83      0      0      0
     12     14     11	    276     84     27     29      8      0      0      2      0    139      0      0      0      0      0      0      0      0      0      0     72      0      0      0      0      0     19      0      0      0      0    162    214      0      0      0    135      0     42      0      0    175      0     37      0      0      0      0      0      0      0      0      0    140      0      0      0      0    103      0      0     82      0      0      0
     10     10     13	    116     63     20     29      2      0      0      0      0      0      0    -13      0    -12      0      0     93      0      0      0      0      0      0      0      0      0      0      0      0      0      0      0     86      0      0      0      0     42      0      0      0      0      0      0     92      0      0      0      0      0      0      0      0      0     14      0      0     68      0      0      0      0      0      0     38
      9     15     14	    394    184     31     31      7      0    -16      0     22      0      0      0      0    179      0      0     19      0      0      0    -39      0      0      0      0      0      0      0      0      0      0      0      0      0      0    282      0      0      0      0     -1      0      0      0      0      0      0      0      0      0    132      0      0      0      0      0      0      0      0     52      0      0      0     -7    214
     11     10     14	    237    130     29     29     10      0      0      0      0      0      0      0    158     48      0      0      0      0      0      0      0      0      0      0      0     66      0    181      0      0      0      0      0      0      0      0      0      0      0     -1      0      0      0     76      0    -16      0      0      0      0      0      0      0      0      0    -37      0      0      0    147      0      0    -41      0      0
     10     12     11	    259    128     25     28      9      0      0      0      0      0      0      0      0      0     18      0      0      0      0      3      0      0      0      0      0     90      0      0     98      0      0    -22      0    107      0      0      0    175      0      0      0      0      0    -34      0      0      0      0      0    -27      0      0      0    -22     97      0      0      0      0      0      0      0    116      0    182
     11     15     13	    175     69     17     22      4      0     56      0     67      0     99    108     83      0      0      0      0     66      0      0      0      0      0      0      0      0      0      0     26      0     -4      0      0      0      0      0      0      0      0      0      0      0      0      0      0      0      0     26      0      0      0      0      0      0      0      0      0      0      0      0      0      0      0      0      0
      6     15     11	    177    112     14     19     10      0      0      0      0      0      0      0      0      0      0      0      0      0      0      0      0      0      0      0      0      0      0      0     58      0      0      0      0      0      0      0      0     37      0      0     76    -34      0      0      0      0      0      0      0     42      0      0      0    -26      0      0      0      0      0      0      0      0     31      7    116
     11     15     10	    457    227     25     29     10     72      0     56      0      0      0      0      0      0      0      0      0      0      0      0     96      0      0    183      0    152      0      0     -6      0      0      0    224      0      0    223      0      0     92      0      0      0      0      0      0      0      0      0      0      0      0    130     37      0      0      0      0      0      0     36      0    154      0     -3      0
      8     14     12	    312    168     24     28      2      0      0      0      0      0      0      0    -36      0    -59      0      0      0      0      0      0      0      0      0      0      0      0      0      0      0     74      0      0      0      0      0      0      0      0      0    -16      0      0      0      0      0      0      0      0      0      0      0     -5     50      0      0    -48    -58      0      0      0      0    164      0      0
      6     11     15	    115     72     25     28      2     -8      0      0     56      0     68      0    -20      0      0      0      0     61      0      0      0      0     52      0      0     50      0     10      0     88      0      0      0      0      0      0      0      0      0      0      0      0      0      0      0      0      0      0      0      0      0      0      0      0      0      0      0      0     76      0      0      0     67      0      0
     11     15     13	    452     62     12     19      8      2      0      0      0      0     12      0      0     70      0      0    172      0      0      0      0      0     -7      0      0      0      0    208      0      0      0    147      0      0    316    199      0      0      0      0      0      0     26      0      0      0      0      0     63      0      0      0      0      0      0    267    150      0      0      0      0      0      0      0      0
      9     14     11	    391    265     29     29      1      0      0      0      0      0      0      0      0     69      0    117    -51     68      0    118      0    -36      0      0    -18      0      0      0      0      0      0      0      0      0      0      0      0      0      0      0      0      0      0      0      0      0      0     63      0    113    125      0      0      0      0    130      0     14      0      0      0      0    173     99      0
      8     13     14	    498    197     10     26      6      0      0    138      0      0      0      0    151    -33      0      0      0    -32      0      0      0    -50      0      0      0      0      0      0      0      0      0      0      0      0      0      0      0      0      0      0      0    -27      0     42      0      0      0      0    113      0     73      0      0    119      0      0      0      0      0      0      0      0      0    123      0
     12     12     10	    204    137     15     28      6      0      0      0      0      0      0    148      0      0      0      0      0      0      0      0    -19      0    158      0      0      0      0      0      0    -12      0      0      0      0      0      0      0      0      0    132      0      0      0      0      0      0      0      0    125     73      0     29      0      0      0      0    136     45      0     -2      0      0      0      0      0
     11     12     14	    390    176     13     25      6      0    186      0      0    159      0      0      0      0    232      0      0      0    -21      0      0     98      0      0      0      0      0      0    138     63      0      0      0      0      0      0    123      0      0      0      0      0      0      0    130      0      0      0      0      0     29      0      0      0      0      0      0      0      0      0      0      0    108      0      0
      6     15     13	    136     79      7     23      3      0      0      0      0      0      0      0    106      0      0      0     79     97      0      0      0      0      0      0      0      0    103      0      0      0      0      0      0     39      0      0      0      0      0      0      0      0      0      0     37     -5      0      0      0      0      0      0      0      0      0     37      0     61     78    -24      0     88     49      0      0
     10     15     10	    226     91     12     14     10      0      0      0      0      0      0      0      0     86      0      0      0      0      0      0      0      0      0      0      0      0      0      0     10      0     73      0      0      0      0    114      0    140      0      0      0    -22      0    -26      0     50      0      0      0    119      0      0      0      0      0     38      0      0      0      0      0      0      7      0      0
      8     12     13	    483     80     21     26      5      0      0    -19      0      0    136      0      0      0      0      0      0    323      0    -14      0      0      0      0      0      0      0     -9      0     -5      0    227      0    307      0      0      0      0     14      0      0     97      0      0      0      0      0      0      0      0      0      0      0      0      0      0    300      0      0      0      0      0      0     23     45
      7     14     13	    379    148     27     30      2      0      0      0      0      0      0      0      0      0      0      0     88    -33      0      0      0      0     92      0      0      0      0      0      0      0      0      0      0      0      0    167      0      0      0      0    -37      0      0      0      0      0      0    267    130      0      0      0     37     38      0      0      0      0      0    -44      0     54     25      0    203
     12     13     10	    428    295     29     29      7      0      0      0      0      0      0      0      0      0      0     33      0    140      0      0    -34      0      0      0      0      0      0      0    -64      0     18      0      0      0      0      9      0      0      0      0      0      0      0      0      0    -48      0    150      0      0    136      0      0      0    300      0      0      0    209      0      0      0     98      0     20
      7     10     12	    339    130     13     14      7      0    -25      0      0      0      0     99      0    209      0      0      0      0      0      0    111      0      0      0      0    -36      0      0      0      0      0    185      0      0      0      0      0      0     68      0      0      0      0      0      0    -58      0      0     14      0     45      0     61      0      0      0      0      0      0     73    238    -28      0      0     41
      8     13     13	    415    172     19     21      8    202    205      0      0      0      0      0      0      0      0      0      0      0      0      0     -2      0      0      0      0      0      0      0      0      0      0      0    151      0     -7      0      0    103      0      0      0      0      0      0      0      0     76      0      0      0      0      0     78      0      0      0    209      0      0      0      0     82     77      0      0
      9     12     14	    493    274     24     30      4     -9      0     59      0      0      0      0      0      0      0      0      0      0      0    119      0      0    221      0      0      0      0      0    309      0      0      0      0      0      0      0      0      0      0     52    147      0      0      0     36      0      0      0      0      0     -2      0    -24      0      0    -44      0     73      0      0      0     44      0      0      0
     12     11     14	    480     73     12     30      7      0      0     73      0      0      0      0      0      0      0     86      0      0      0      0      0     -1    157      0      0      0    310      0      0      0      0     52      0      0      0      0     48      0      0      0      0      0      0      0      0      0      0      0      0      0      0      0      0      0      0      0      0    238      0      0      0      0      0      0      0
      6     12     11	    203    129     31     31      5      0     27      0      0     99      0      0      0      0      0      0     30      0      0      0      0     -6      0      0      0      0    -38      0      0      0      0      0      0      0      0      0     83     82      0      0      0      0      0      0    154      0      0      0      0      0      0      0     88      0      0     54      0    -28     82     44      0      0      0      0      0
      7     13     10	    251    120     11     14     10      0    -31      0      0      0      0     24      0    125      0      0      0      0      0      0      0      0      0      0      0      0      0      0    142    -24      0    199      0      0    -27      0      0      0      0      0    -41    116      0     31      0    164     67      0    173      0      0    108     49      7      0     25     98      0     77      0      0      0      0      0      0
     10     12     15	    203    136     15     15      1      0      0     85      0      0      0      0      0      0      0      0      0      0     15      0      0      0     -3      0      0      0      0      0    106      0      0      0      0    -11      0      0      0      0      0     -7      0      0      0      7     -3      0      0      0     99    123      0      0      0      0     23      0      0      0      0      0      0      0      0      0     90
      9     10     10	    319    221     29     30      3    130      0    147     83    170      0      0    188      0      0      0      0     84      0    197      0      0      0      0      0      0      0      0      0      0      0      0    105      0    104      0      0      0     38    214      0    182      0    116      0      0      0      0      0      0      0      0      0      0     45    203     20     41      0      0      0      0      0     90      0